c FILE			: sample.gr
c No. of vertices	: 10
c No. of directed edges	: 22
c Max. weight		: 100
c Min. weight		: 0
c A directed arc from u to v of weight w
c is represented below as ' a  u  v  w '
p sp 10 22
a 1 5 66
a 1 9 55
a 1 10 87
a 2 1 8
a 2 4 78
a 3 7 12
a 4 1 65
a 4 2 4
a 4 10 21
a 5 3 22
a 5 9 27
a 7 3 49
a 7 5 2
a 7 6 98
a 7 10 58
a 8 1 27
a 9 5 57
a 10 2 21
a 10 5 38
a 10 6 93
a 10 7 61
a 10 8 99
